7278295707214823398506,14,1,2,02,7,1,2,04,13,1,2,01,8,1,2,08,14,1,2,07,14,1,2,03,15,1,2,09,6,1,2,06,5,1,2,01,15,1,2,07,13,1,2,07,14,1,2,015,1,1,2,09,13,1,2,03,10,1,2,03,7,1,2,05,14,1,2,014,1,1,2,08,9,1,2,014,6,1,2,02,13,1,2,02,9,1,2,015,4,1,2,03,13,1,2,010,6,1,2,08,7,1,2,03,6,1,2,03,10,1,2,012,9,1,2,08,15,1,2,014,12,1,2,04,7,1,2,010,5,1,2,01,7,1,2,09,5,1,2,013,4,1,2,015,6,1,2,08,5,1,2,08,3,1,2,015,1,1,2,011,14,1,2,06,3,1,2,06,15,1,2,06,9,1,2,07,7,1,2,08,3,1,2,011,13,1,2,09,10,1,2,03,7,1,2,011,12,1,2,0